\ENCODING=ISO-8859-1
\Problem name: 

Minimize
 obj: 0.000001 y0_0 + 0.000001 y0_1 + 0.000001 y0_2 + 0.000001 y0_3
      + 0.000001 y0_4 + 0.000001 y0_5 + 0.000001 y0_6 + 0.000001 y0_7
      + 0.000001 y0_8 + 0.000001 y0_9 + 0.000001 y0_10 + 0.000001 y0_11
      + 0.000001 y0_12 + 0.000001 y0_13 + 0.000001 y0_14 + 0.000001 y0_15
      + 0.000001 y0_16 + 0.000001 y0_17 + 0.000001 y0_18 + 0.000001 y0_19
      + 0.000001 y0_20 + 0.000001 y0_21 + 0.000001 y0_22 + 0.000001 y0_23
      + 0.000001 y0_24 + 0.000001 y0_25 + 0.000001 y0_26 + 0.000001 y0_27
      + 0.000001 y0_28 + 0.000001 y0_29 + 0.000001 y1_0 + 0.000001 y1_1
      + 0.000001 y1_2 + 0.000001 y1_3 + 0.000001 y1_4 + 0.000001 y1_5
      + 0.000001 y1_6 + 0.000001 y1_7 + 0.000001 y1_8 + 0.000001 y1_9
      + 0.000001 y1_10 + 0.000001 y1_11 + 0.000001 y1_12 + 0.000001 y1_13
      + 0.000001 y1_14 + 0.000001 y1_15 + 0.000001 y1_16 + 0.000001 y1_17
      + 0.000001 y1_18 + 0.000001 y1_19 + 0.000001 y1_20 + 0.000001 y1_21
      + 0.000001 y1_22 + 0.000001 y1_23 + 0.000001 y1_24 + 0.000001 y1_25
      + 0.000001 y1_26 + 0.000001 y1_27 + 0.000001 y1_28 + 0.000001 y1_29
      + 0.000001 y2_0 + 0.000001 y2_1 + 0.000001 y2_2 + 0.000001 y2_3
      + 0.000001 y2_4 + 0.000001 y2_5 + 0.000001 y2_6 + 0.000001 y2_7
      + 0.000001 y2_8 + 0.000001 y2_9 + 0.000001 y2_10 + 0.000001 y2_11
      + 0.000001 y2_12 + 0.000001 y2_13 + 0.000001 y2_14 + 0.000001 y2_15
      + 0.000001 y2_16 + 0.000001 y2_17 + 0.000001 y2_18 + 0.000001 y2_19
      + 0.000001 y2_20 + 0.000001 y2_21 + 0.000001 y2_22 + 0.000001 y2_23
      + 0.000001 y2_24 + 0.000001 y2_25 + 0.000001 y2_26 + 0.000001 y2_27
      + 0.000001 y2_28 + 0.000001 y2_29 + 0.000001 y3_0 + 0.000001 y3_1
      + 0.000001 y3_2 + 0.000001 y3_3 + 0.000001 y3_4 + 0.000001 y3_5
      + 0.000001 y3_6 + 0.000001 y3_7 + 0.000001 y3_8 + 0.000001 y3_9
      + 0.000001 y3_10 + 0.000001 y3_11 + 0.000001 y3_12 + 0.000001 y3_13
      + 0.000001 y3_14 + 0.000001 y3_15 + 0.000001 y3_16 + 0.000001 y3_17
      + 0.000001 y3_18 + 0.000001 y3_19 + 0.000001 y3_20 + 0.000001 y3_21
      + 0.000001 y3_22 + 0.000001 y3_23 + 0.000001 y3_24 + 0.000001 y3_25
      + 0.000001 y3_26 + 0.000001 y3_27 + 0.000001 y3_28 + 0.000001 y3_29
      + 0.000001 y4_0 + 0.000001 y4_1 + 0.000001 y4_2 + 0.000001 y4_3
      + 0.000001 y4_4 + 0.000001 y4_5 + 0.000001 y4_6 + 0.000001 y4_7
      + 0.000001 y4_8 + 0.000001 y4_9 + 0.000001 y4_10 + 0.000001 y4_11
      + 0.000001 y4_12 + 0.000001 y4_13 + 0.000001 y4_14 + 0.000001 y4_15
      + 0.000001 y4_16 + 0.000001 y4_17 + 0.000001 y4_18 + 0.000001 y4_19
      + 0.000001 y4_20 + 0.000001 y4_21 + 0.000001 y4_22 + 0.000001 y4_23
      + 0.000001 y4_24 + 0.000001 y4_25 + 0.000001 y4_26 + 0.000001 y4_27
      + 0.000001 y4_28 + 0.000001 y4_29 + 0.000001 y5_0 + 0.000001 y5_1
      + 0.000001 y5_2 + 0.000001 y5_3 + 0.000001 y5_4 + 0.000001 y5_5
      + 0.000001 y5_6 + 0.000001 y5_7 + 0.000001 y5_8 + 0.000001 y5_9
      + 0.000001 y5_10 + 0.000001 y5_11 + 0.000001 y5_12 + 0.000001 y5_13
      + 0.000001 y5_14 + 0.000001 y5_15 + 0.000001 y5_16 + 0.000001 y5_17
      + 0.000001 y5_18 + 0.000001 y5_19 + 0.000001 y5_20 + 0.000001 y5_21
      + 0.000001 y5_22 + 0.000001 y5_23 + 0.000001 y5_24 + 0.000001 y5_25
      + 0.000001 y5_26 + 0.000001 y5_27 + 0.000001 y5_28 + 0.000001 y5_29
      + 0.000001 y6_0 + 0.000001 y6_1 + 0.000001 y6_2 + 0.000001 y6_3
      + 0.000001 y6_4 + 0.000001 y6_5 + 0.000001 y6_6 + 0.000001 y6_7
      + 0.000001 y6_8 + 0.000001 y6_9 + 0.000001 y6_10 + 0.000001 y6_11
      + 0.000001 y6_12 + 0.000001 y6_13 + 0.000001 y6_14 + 0.000001 y6_15
      + 0.000001 y6_16 + 0.000001 y6_17 + 0.000001 y6_18 + 0.000001 y6_19
      + 0.000001 y6_20 + 0.000001 y6_21 + 0.000001 y6_22 + 0.000001 y6_23
      + 0.000001 y6_24 + 0.000001 y6_25 + 0.000001 y6_26 + 0.000001 y6_27
      + 0.000001 y6_28 + 0.000001 y6_29 + 0.000001 y7_0 + 0.000001 y7_1
      + 0.000001 y7_2 + 0.000001 y7_3 + 0.000001 y7_4 + 0.000001 y7_5
      + 0.000001 y7_6 + 0.000001 y7_7 + 0.000001 y7_8 + 0.000001 y7_9
      + 0.000001 y7_10 + 0.000001 y7_11 + 0.000001 y7_12 + 0.000001 y7_13
      + 0.000001 y7_14 + 0.000001 y7_15 + 0.000001 y7_16 + 0.000001 y7_17
      + 0.000001 y7_18 + 0.000001 y7_19 + 0.000001 y7_20 + 0.000001 y7_21
      + 0.000001 y7_22 + 0.000001 y7_23 + 0.000001 y7_24 + 0.000001 y7_25
      + 0.000001 y7_26 + 0.000001 y7_27 + 0.000001 y7_28 + 0.000001 y7_29
      + 0.000001 y8_0 + 0.000001 y8_1 + 0.000001 y8_2 + 0.000001 y8_3
      + 0.000001 y8_4 + 0.000001 y8_5 + 0.000001 y8_6 + 0.000001 y8_7
      + 0.000001 y8_8 + 0.000001 y8_9 + 0.000001 y8_10 + 0.000001 y8_11
      + 0.000001 y8_12 + 0.000001 y8_13 + 0.000001 y8_14 + 0.000001 y8_15
      + 0.000001 y8_16 + 0.000001 y8_17 + 0.000001 y8_18 + 0.000001 y8_19
      + 0.000001 y8_20 + 0.000001 y8_21 + 0.000001 y8_22 + 0.000001 y8_23
      + 0.000001 y8_24 + 0.000001 y8_25 + 0.000001 y8_26 + 0.000001 y8_27
      + 0.000001 y8_28 + 0.000001 y8_29 + 0.000001 y9_0 + 0.000001 y9_1
      + 0.000001 y9_2 + 0.000001 y9_3 + 0.000001 y9_4 + 0.000001 y9_5
      + 0.000001 y9_6 + 0.000001 y9_7 + 0.000001 y9_8 + 0.000001 y9_9
      + 0.000001 y9_10 + 0.000001 y9_11 + 0.000001 y9_12 + 0.000001 y9_13
      + 0.000001 y9_14 + 0.000001 y9_15 + 0.000001 y9_16 + 0.000001 y9_17
      + 0.000001 y9_18 + 0.000001 y9_19 + 0.000001 y9_20 + 0.000001 y9_21
      + 0.000001 y9_22 + 0.000001 y9_23 + 0.000001 y9_24 + 0.000001 y9_25
      + 0.000001 y9_26 + 0.000001 y9_27 + 0.000001 y9_28 + 0.000001 y9_29
      + 0.000001 y10_0 + 0.000001 y10_1 + 0.000001 y10_2 + 0.000001 y10_3
      + 0.000001 y10_4 + 0.000001 y10_5 + 0.000001 y10_6 + 0.000001 y10_7
      + 0.000001 y10_8 + 0.000001 y10_9 + 0.000001 y10_10 + 0.000001 y10_11
      + 0.000001 y10_12 + 0.000001 y10_13 + 0.000001 y10_14 + 0.000001 y10_15
      + 0.000001 y10_16 + 0.000001 y10_17 + 0.000001 y10_18 + 0.000001 y10_19
      + 0.000001 y10_20 + 0.000001 y10_21 + 0.000001 y10_22 + 0.000001 y10_23
      + 0.000001 y10_24 + 0.000001 y10_25 + 0.000001 y10_26 + 0.000001 y10_27
      + 0.000001 y10_28 + 0.000001 y10_29 + 0.000001 y11_0 + 0.000001 y11_1
      + 0.000001 y11_2 + 0.000001 y11_3 + 0.000001 y11_4 + 0.000001 y11_5
      + 0.000001 y11_6 + 0.000001 y11_7 + 0.000001 y11_8 + 0.000001 y11_9
      + 0.000001 y11_10 + 0.000001 y11_11 + 0.000001 y11_12 + 0.000001 y11_13
      + 0.000001 y11_14 + 0.000001 y11_15 + 0.000001 y11_16 + 0.000001 y11_17
      + 0.000001 y11_18 + 0.000001 y11_19 + 0.000001 y11_20 + 0.000001 y11_21
      + 0.000001 y11_22 + 0.000001 y11_23 + 0.000001 y11_24 + 0.000001 y11_25
      + 0.000001 y11_26 + 0.000001 y11_27 + 0.000001 y11_28 + 0.000001 y11_29
      + MLU
Subject To
 c1:   y0_0 + y1_0 + y2_0 + y3_0 + y4_0 + y5_0 + y6_0 + y7_0 + y8_0 + y9_0
       + y10_0 + y11_0 - 9920 MLU <= 0
 c2:   y0_1 + y1_1 + y2_1 + y3_1 + y4_1 + y5_1 + y6_1 + y7_1 + y8_1 + y9_1
       + y10_1 + y11_1 - 9920 MLU <= 0
 c3:   y0_2 + y1_2 + y2_2 + y3_2 + y4_2 + y5_2 + y6_2 + y7_2 + y8_2 + y9_2
       + y10_2 + y11_2 - 9920 MLU <= 0
 c4:   y0_3 + y1_3 + y2_3 + y3_3 + y4_3 + y5_3 + y6_3 + y7_3 + y8_3 + y9_3
       + y10_3 + y11_3 - 2480 MLU <= 0
 c5:   y0_4 + y1_4 + y2_4 + y3_4 + y4_4 + y5_4 + y6_4 + y7_4 + y8_4 + y9_4
       + y10_4 + y11_4 - 9920 MLU <= 0
 c6:   y0_5 + y1_5 + y2_5 + y3_5 + y4_5 + y5_5 + y6_5 + y7_5 + y8_5 + y9_5
       + y10_5 + y11_5 - 9920 MLU <= 0
 c7:   y0_6 + y1_6 + y2_6 + y3_6 + y4_6 + y5_6 + y6_6 + y7_6 + y8_6 + y9_6
       + y10_6 + y11_6 - 9920 MLU <= 0
 c8:   y0_7 + y1_7 + y2_7 + y3_7 + y4_7 + y5_7 + y6_7 + y7_7 + y8_7 + y9_7
       + y10_7 + y11_7 - 9920 MLU <= 0
 c9:   y0_8 + y1_8 + y2_8 + y3_8 + y4_8 + y5_8 + y6_8 + y7_8 + y8_8 + y9_8
       + y10_8 + y11_8 - 9920 MLU <= 0
 c10:  y0_9 + y1_9 + y2_9 + y3_9 + y4_9 + y5_9 + y6_9 + y7_9 + y8_9 + y9_9
       + y10_9 + y11_9 - 9920 MLU <= 0
 c11:  y0_10 + y1_10 + y2_10 + y3_10 + y4_10 + y5_10 + y6_10 + y7_10 + y8_10
       + y9_10 + y10_10 + y11_10 - 9920 MLU <= 0
 c12:  y0_11 + y1_11 + y2_11 + y3_11 + y4_11 + y5_11 + y6_11 + y7_11 + y8_11
       + y9_11 + y10_11 + y11_11 - 9920 MLU <= 0
 c13:  y0_12 + y1_12 + y2_12 + y3_12 + y4_12 + y5_12 + y6_12 + y7_12 + y8_12
       + y9_12 + y10_12 + y11_12 - 9920 MLU <= 0
 c14:  y0_13 + y1_13 + y2_13 + y3_13 + y4_13 + y5_13 + y6_13 + y7_13 + y8_13
       + y9_13 + y10_13 + y11_13 - 2480 MLU <= 0
 c15:  y0_14 + y1_14 + y2_14 + y3_14 + y4_14 + y5_14 + y6_14 + y7_14 + y8_14
       + y9_14 + y10_14 + y11_14 - 9920 MLU <= 0
 c16:  y0_15 + y1_15 + y2_15 + y3_15 + y4_15 + y5_15 + y6_15 + y7_15 + y8_15
       + y9_15 + y10_15 + y11_15 - 9920 MLU <= 0
 c17:  y0_16 + y1_16 + y2_16 + y3_16 + y4_16 + y5_16 + y6_16 + y7_16 + y8_16
       + y9_16 + y10_16 + y11_16 - 9920 MLU <= 0
 c18:  y0_17 + y1_17 + y2_17 + y3_17 + y4_17 + y5_17 + y6_17 + y7_17 + y8_17
       + y9_17 + y10_17 + y11_17 - 9920 MLU <= 0
 c19:  y0_18 + y1_18 + y2_18 + y3_18 + y4_18 + y5_18 + y6_18 + y7_18 + y8_18
       + y9_18 + y10_18 + y11_18 - 9920 MLU <= 0
 c20:  y0_19 + y1_19 + y2_19 + y3_19 + y4_19 + y5_19 + y6_19 + y7_19 + y8_19
       + y9_19 + y10_19 + y11_19 - 9920 MLU <= 0
 c21:  y0_20 + y1_20 + y2_20 + y3_20 + y4_20 + y5_20 + y6_20 + y7_20 + y8_20
       + y9_20 + y10_20 + y11_20 - 9920 MLU <= 0
 c22:  y0_21 + y1_21 + y2_21 + y3_21 + y4_21 + y5_21 + y6_21 + y7_21 + y8_21
       + y9_21 + y10_21 + y11_21 - 9920 MLU <= 0
 c23:  y0_22 + y1_22 + y2_22 + y3_22 + y4_22 + y5_22 + y6_22 + y7_22 + y8_22
       + y9_22 + y10_22 + y11_22 - 9920 MLU <= 0
 c24:  y0_23 + y1_23 + y2_23 + y3_23 + y4_23 + y5_23 + y6_23 + y7_23 + y8_23
       + y9_23 + y10_23 + y11_23 - 9920 MLU <= 0
 c25:  y0_24 + y1_24 + y2_24 + y3_24 + y4_24 + y5_24 + y6_24 + y7_24 + y8_24
       + y9_24 + y10_24 + y11_24 - 9920 MLU <= 0
 c26:  y0_25 + y1_25 + y2_25 + y3_25 + y4_25 + y5_25 + y6_25 + y7_25 + y8_25
       + y9_25 + y10_25 + y11_25 - 9920 MLU <= 0
 c27:  y0_26 + y1_26 + y2_26 + y3_26 + y4_26 + y5_26 + y6_26 + y7_26 + y8_26
       + y9_26 + y10_26 + y11_26 - 9920 MLU <= 0
 c28:  y0_27 + y1_27 + y2_27 + y3_27 + y4_27 + y5_27 + y6_27 + y7_27 + y8_27
       + y9_27 + y10_27 + y11_27 - 9920 MLU <= 0
 c29:  y0_28 + y1_28 + y2_28 + y3_28 + y4_28 + y5_28 + y6_28 + y7_28 + y8_28
       + y9_28 + y10_28 + y11_28 - 9920 MLU <= 0
 c30:  y0_29 + y1_29 + y2_29 + y3_29 + y4_29 + y5_29 + y6_29 + y7_29 + y8_29
       + y9_29 + y10_29 + y11_29 - 9920 MLU <= 0
 c31:  - y0_0 + y0_1  = 8423.22933333333
 c32:  y0_0 - y0_1 - y0_2 - y0_3 - y0_4 + y0_10 + y0_13 + y0_28  = -421.626
 c33:  - y0_5 - y0_6 + y0_14 + y0_21  = -2056.23566666667
 c34:  - y0_7 - y0_8 - y0_9 + y0_16 + y0_23 + y0_26  = -163.707333333333
 c35:  y0_2 - y0_10 - y0_11 - y0_12 + y0_17 + y0_19  = -490.439333333333
 c36:  y0_3 + y0_5 - y0_13 - y0_14 - y0_15 + y0_18  = -634.682666666667
 c37:  y0_7 + y0_11 + y0_15 - y0_16 - y0_17 - y0_18  = -372.304333333333
 c38:  y0_12 - y0_19 - y0_20 + y0_24  = -304.136666666667
 c39:  y0_6 - y0_21 - y0_22 + y0_29  = -967.343333333333
 c40:  y0_8 + y0_20 - y0_23 - y0_24 - y0_25 + y0_27  = -80.0966666666667
 c41:  y0_9 + y0_25 - y0_26 - y0_27  = -195.623333333333
 c42:  y0_4 + y0_22 - y0_28 - y0_29  = -2737.034
 c43:  - y1_0 + y1_1  = -588.070666666667
 c44:  y1_0 - y1_1 - y1_2 - y1_3 - y1_4 + y1_10 + y1_13 + y1_28  = 59035.483
 c45:  - y1_5 - y1_6 + y1_14 + y1_21  = -4650.588
 c46:  - y1_7 - y1_8 - y1_9 + y1_16 + y1_23 + y1_26  = -3800.59433333333
 c47:  y1_2 - y1_10 - y1_11 - y1_12 + y1_17 + y1_19  = -3527.63233333333
 c48:  y1_3 + y1_5 - y1_13 - y1_14 - y1_15 + y1_18  = -4353.91333333333
 c49:  y1_7 + y1_11 + y1_15 - y1_16 - y1_17 - y1_18  = -1292.154
 c50:  y1_12 - y1_19 - y1_20 + y1_24  = -6217.85366666667
 c51:  y1_6 - y1_21 - y1_22 + y1_29  = -6613.46633333333
 c52:  y1_8 + y1_20 - y1_23 - y1_24 - y1_25 + y1_27  = -513.603666666667
 c53:  y1_9 + y1_25 - y1_26 - y1_27  = -2171.03166666667
 c54:  y1_4 + y1_22 - y1_28 - y1_29  = -25306.575
 c55:  - y2_0 + y2_1  = -322.44
 c56:  y2_0 - y2_1 - y2_2 - y2_3 - y2_4 + y2_10 + y2_13 + y2_28
        = -9735.04066666667
 c57:  - y2_5 - y2_6 + y2_14 + y2_21  = 166956.124
 c58:  - y2_7 - y2_8 - y2_9 + y2_16 + y2_23 + y2_26  = -19250.5906666667
 c59:  y2_2 - y2_10 - y2_11 - y2_12 + y2_17 + y2_19  = -13441.018
 c60:  y2_3 + y2_5 - y2_13 - y2_14 - y2_15 + y2_18  = -19751.0803333333
 c61:  y2_7 + y2_11 + y2_15 - y2_16 - y2_17 - y2_18  = -4598.014
 c62:  y2_12 - y2_19 - y2_20 + y2_24  = -40659.0033333333
 c63:  y2_6 - y2_21 - y2_22 + y2_29  = -35896.3666666667
 c64:  y2_8 + y2_20 - y2_23 - y2_24 - y2_25 + y2_27  = -630.432333333333
 c65:  y2_9 + y2_25 - y2_26 - y2_27  = -7120.87733333333
 c66:  y2_4 + y2_22 - y2_28 - y2_29  = -15551.2606666667
 c67:  - y3_0 + y3_1  = -131.956333333333
 c68:  y3_0 - y3_1 - y3_2 - y3_3 - y3_4 + y3_10 + y3_13 + y3_28
        = -2076.64966666667
 c69:  - y3_5 - y3_6 + y3_14 + y3_21  = -6414.77666666667
 c70:  - y3_7 - y3_8 - y3_9 + y3_16 + y3_23 + y3_26  = 49018.9426666667
 c71:  y3_2 - y3_10 - y3_11 - y3_12 + y3_17 + y3_19  = -803.497666666667
 c72:  y3_3 + y3_5 - y3_13 - y3_14 - y3_15 + y3_18  = -3716.24566666667
 c73:  y3_7 + y3_11 + y3_15 - y3_16 - y3_17 - y3_18  = -4312.52333333333
 c74:  y3_12 - y3_19 - y3_20 + y3_24  = -6560.026
 c75:  y3_6 - y3_21 - y3_22 + y3_29  = -6455.92066666667
 c76:  y3_8 + y3_20 - y3_23 - y3_24 - y3_25 + y3_27  = -3537.334
 c77:  y3_9 + y3_25 - y3_26 - y3_27  = -1430.37266666667
 c78:  y3_4 + y3_22 - y3_28 - y3_29  = -13579.64
 c79:  - y4_0 + y4_1  = -124.183333333333
 c80:  y4_0 - y4_1 - y4_2 - y4_3 - y4_4 + y4_10 + y4_13 + y4_28
        = -7022.03666666667
 c81:  - y4_5 - y4_6 + y4_14 + y4_21  = -3938.03533333333
 c82:  - y4_7 - y4_8 - y4_9 + y4_16 + y4_23 + y4_26  = -3955.56266666667
 c83:  y4_2 - y4_10 - y4_11 - y4_12 + y4_17 + y4_19  = 41882.4866666667
 c84:  y4_3 + y4_5 - y4_13 - y4_14 - y4_15 + y4_18  = -3665.24766666667
 c85:  y4_7 + y4_11 + y4_15 - y4_16 - y4_17 - y4_18  = -1604.849
 c86:  y4_12 - y4_19 - y4_20 + y4_24  = -6825.36933333333
 c87:  y4_6 - y4_21 - y4_22 + y4_29  = -2248.83966666667
 c88:  y4_8 + y4_20 - y4_23 - y4_24 - y4_25 + y4_27  = -1316.93066666667
 c89:  y4_9 + y4_25 - y4_26 - y4_27  = -1184.967
 c90:  y4_4 + y4_22 - y4_28 - y4_29  = -9996.46533333333
 c91:  - y5_0 + y5_1  = -1062.44766666667
 c92:  y5_0 - y5_1 - y5_2 - y5_3 - y5_4 + y5_10 + y5_13 + y5_28
        = -4356.49766666667
 c93:  - y5_5 - y5_6 + y5_14 + y5_21  = -11388.595
 c94:  - y5_7 - y5_8 - y5_9 + y5_16 + y5_23 + y5_26  = -7572.538
 c95:  y5_2 - y5_10 - y5_11 - y5_12 + y5_17 + y5_19  = -2627.47833333333
 c96:  y5_3 + y5_5 - y5_13 - y5_14 - y5_15 + y5_18  = 70385.8676666667
 c97:  y5_7 + y5_11 + y5_15 - y5_16 - y5_17 - y5_18  = -4437.099
 c98:  y5_12 - y5_19 - y5_20 + y5_24  = -8279.67166666667
 c99:  y5_6 - y5_21 - y5_22 + y5_29  = -7241.853
 c100: y5_8 + y5_20 - y5_23 - y5_24 - y5_25 + y5_27  = -1490.05933333333
 c101: y5_9 + y5_25 - y5_26 - y5_27  = -3487.73
 c102: y5_4 + y5_22 - y5_28 - y5_29  = -18441.898
 c103: - y6_0 + y6_1  = -163.514333333333
 c104: y6_0 - y6_1 - y6_2 - y6_3 - y6_4 + y6_10 + y6_13 + y6_28  = -2779.686
 c105: - y6_5 - y6_6 + y6_14 + y6_21  = -4296.755
 c106: - y6_7 - y6_8 - y6_9 + y6_16 + y6_23 + y6_26  = -5859.384
 c107: y6_2 - y6_10 - y6_11 - y6_12 + y6_17 + y6_19  = -945.663333333333
 c108: y6_3 + y6_5 - y6_13 - y6_14 - y6_15 + y6_18  = -3587.36466666667
 c109: y6_7 + y6_11 + y6_15 - y6_16 - y6_17 - y6_18  = 31061.6156666667
 c110: y6_12 - y6_19 - y6_20 + y6_24  = -3111.437
 c111: y6_6 - y6_21 - y6_22 + y6_29  = -3280.52066666667
 c112: y6_8 + y6_20 - y6_23 - y6_24 - y6_25 + y6_27  = -193.651333333333
 c113: y6_9 + y6_25 - y6_26 - y6_27  = -956.974666666667
 c114: y6_4 + y6_22 - y6_28 - y6_29  = -5886.66466666667
 c115: - y7_0 + y7_1  = -376.747666666667
 c116: y7_0 - y7_1 - y7_2 - y7_3 - y7_4 + y7_10 + y7_13 + y7_28
        = -4595.76933333333
 c117: - y7_5 - y7_6 + y7_14 + y7_21  = -11901.7373333333
 c118: - y7_7 - y7_8 - y7_9 + y7_16 + y7_23 + y7_26  = -3964.529
 c119: y7_2 - y7_10 - y7_11 - y7_12 + y7_17 + y7_19  = -15155.4273333333
 c120: y7_3 + y7_5 - y7_13 - y7_14 - y7_15 + y7_18  = -9268.57933333333
 c121: y7_7 + y7_11 + y7_15 - y7_16 - y7_17 - y7_18  = -2436.21366666667
 c122: y7_12 - y7_19 - y7_20 + y7_24  = 115790.741
 c123: y7_6 - y7_21 - y7_22 + y7_29  = -10894.588
 c124: y7_8 + y7_20 - y7_23 - y7_24 - y7_25 + y7_27  = -9102.892
 c125: y7_9 + y7_25 - y7_26 - y7_27  = -7093.99733333333
 c126: y7_4 + y7_22 - y7_28 - y7_29  = -41000.26
 c127: - y8_0 + y8_1  = -1238.68533333333
 c128: y8_0 - y8_1 - y8_2 - y8_3 - y8_4 + y8_10 + y8_13 + y8_28
        = -2820.16866666667
 c129: - y8_5 - y8_6 + y8_14 + y8_21  = -3439.384
 c130: - y8_7 - y8_8 - y8_9 + y8_16 + y8_23 + y8_26  = -2729.49666666667
 c131: y8_2 - y8_10 - y8_11 - y8_12 + y8_17 + y8_19  = -1791.697
 c132: y8_3 + y8_5 - y8_13 - y8_14 - y8_15 + y8_18  = -6690.90433333333
 c133: y8_7 + y8_11 + y8_15 - y8_16 - y8_17 - y8_18  = -1577.82366666667
 c134: y8_12 - y8_19 - y8_20 + y8_24  = -9406.68066666667
 c135: y8_6 - y8_21 - y8_22 + y8_29  = 64201.5866666667
 c136: y8_8 + y8_20 - y8_23 - y8_24 - y8_25 + y8_27  = -1085.74533333333
 c137: y8_9 + y8_25 - y8_26 - y8_27  = -2338.53833333333
 c138: y8_4 + y8_22 - y8_28 - y8_29  = -31082.4626666667
 c139: - y9_0 + y9_1  = -15.8083333333333
 c140: y9_0 - y9_1 - y9_2 - y9_3 - y9_4 + y9_10 + y9_13 + y9_28  = -668.1695
 c141: - y9_5 - y9_6 + y9_14 + y9_21  = -1399.72466666667
 c142: - y9_7 - y9_8 - y9_9 + y9_16 + y9_23 + y9_26  = -7958.74666666667
 c143: y9_2 - y9_10 - y9_11 - y9_12 + y9_17 + y9_19  = -231.165666666667
 c144: y9_3 + y9_5 - y9_13 - y9_14 - y9_15 + y9_18  = -955.795333333333
 c145: y9_7 + y9_11 + y9_15 - y9_16 - y9_17 - y9_18  = -1366.79233333333
 c146: y9_12 - y9_19 - y9_20 + y9_24  = -4775.341
 c147: y9_6 - y9_21 - y9_22 + y9_29  = -1938.779
 c148: y9_8 + y9_20 - y9_23 - y9_24 - y9_25 + y9_27  = 23660.7371666667
 c149: y9_9 + y9_25 - y9_26 - y9_27  = -2157.48066666667
 c150: y9_4 + y9_22 - y9_28 - y9_29  = -2192.934
 c151: - y10_0 + y10_1  = -183.794666666667
 c152: y10_0 - y10_1 - y10_2 - y10_3 - y10_4 + y10_10 + y10_13 + y10_28
        = -2236.717
 c153: - y10_5 - y10_6 + y10_14 + y10_21  = -3132.08633333333
 c154: - y10_7 - y10_8 - y10_9 + y10_16 + y10_23 + y10_26  = -4583.66266666667
 c155: y10_2 - y10_10 - y10_11 - y10_12 + y10_17 + y10_19  = -819.162
 c156: y10_3 + y10_5 - y10_13 - y10_14 - y10_15 + y10_18  = -3783.21566666667
 c157: y10_7 + y10_11 + y10_15 - y10_16 - y10_17 - y10_18  = -3590.413
 c158: y10_12 - y10_19 - y10_20 + y10_24  = -9128.05033333333
 c159: y10_6 - y10_21 - y10_22 + y10_29  = -5328.81633333333
 c160: y10_8 + y10_20 - y10_23 - y10_24 - y10_25 + y10_27  = -10503.6473333333
 c161: y10_9 + y10_25 - y10_26 - y10_27  = 52483.7873333333
 c162: y10_4 + y10_22 - y10_28 - y10_29  = -9194.222
 c163: - y11_0 + y11_1  = -914.723333333333
 c164: y11_0 - y11_1 - y11_2 - y11_3 - y11_4 + y11_10 + y11_13 + y11_28
        = -16826.756
 c165: - y11_5 - y11_6 + y11_14 + y11_21  = -6895.54766666667
 c166: - y11_7 - y11_8 - y11_9 + y11_16 + y11_23 + y11_26  = -8215.17966666667
 c167: y11_2 - y11_10 - y11_11 - y11_12 + y11_17 + y11_19  = -3643.74933333333
 c168: y11_3 + y11_5 - y11_13 - y11_14 - y11_15 + y11_18  = -8424.305
 c169: y11_7 + y11_11 + y11_15 - y11_16 - y11_17 - y11_18  = -2498.95033333333
 c170: y11_12 - y11_19 - y11_20 + y11_24  = -11327.722
 c171: y11_6 - y11_21 - y11_22 + y11_29  = -16689.8793333333
 c172: y11_8 + y11_20 - y11_23 - y11_24 - y11_25 + y11_27  = -161.128
 c173: y11_9 + y11_25 - y11_26 - y11_27  = -3107.98866666667
 c174: y11_4 + y11_22 - y11_28 - y11_29  = 78705.9293333333
End
